n = 50;
C = 5645;
w = [394,120,110,358,332,54,89,146,315,278,432,427,139,150,166,413,407,146,361,156,285,135,40,119,126,375,38,77,318,38,385,88,185,475,481,14,131,351,363,178,34,313,73,42,282,148,279,62,498,365];
p = [1980,610,560,1800,1670,280,455,740,1585,1400,2170,2145,705,760,840,2075,2045,740,1815,790,1435,685,210,605,640,1885,200,395,1600,200,1935,450,935,2385,2415,80,665,1765,1825,900,180,1575,375,220,1420,750,1405,320,2500,1835];
